Test: fpga13_10_sat.cnf
Options: -no-inverting-opt -activity-look-freq=1
WARNING: for repeatability, setting FPU to use double precision
============================[ Problem Statistics ]=============================
|                                                                             |
|  Number of symmetries:           28                                         |
|  Number of invertingSyms:         0                                         |
|  Number of variables:           195                                         |
|  Number of clauses:             905                                         |
|  Parse time:                   0.00 s                                       |
|                                                                             |
============================[ Search Statistics ]==============================
| Conflicts |          ORIGINAL         |          LEARNT          | Progress |
|           |    Vars  Clauses Literals |    Limit  Clauses Lit/Cl |          |
===============================================================================
|       100 |     195      905     2440 |      331      266     48 |  0.003 % |
===============================================================================
restarts              : 2
conflicts             : 150            (37500 /sec)
symconflicts          : 58             (14500 /sec)
decisions             : 426            (0.00 % random) (106500 /sec)
propagations          : 8186           (2046500 /sec)
sympropagations       : 250            (62500 /sec)
conflict literals     : 5775           (1.11 % deleted)
literals     : 5775           (1.11 % deleted)

HEURISTIC USAGES
random                : 0           
activity w/ lookahead : 425         
activity no lookahead : 0           
original sp           : 0           
sym count             : 0           

Memory used           : 5.00 MB
CPU time              : 0.004 s

SATISFIABLE
